p cnf 132 162
15 20 41 51 0
15 20 41 -51 0
-15 20 41 52 0
-15 20 41 -52 0
7 8 -41 53 0
7 8 -41 -53 0
7 -8 -41 54 0
7 -8 -41 -54 0
-7 42 50 55 0
-7 42 50 -55 0
-7 -42 50 56 0
-7 -42 50 -56 0
22 35 -50 57 0
22 35 -50 -57 0
22 -35 45 58 0
22 -35 45 -58 0
18 -22 45 59 0
18 -22 45 -59 0
-18 -22 45 60 0
-18 -22 45 -60 0
33 -45 -50 61 0
33 -45 -50 -61 0
-7 -33 -50 62 0
-7 -33 -50 -62 0
19 -20 21 63 0
19 -20 21 -63 0
-20 21 -41 64 0
-20 21 -41 -64 0
19 -20 -21 65 0
19 -20 -21 -65 0
1 14 36 66 0
1 14 36 -66 0
-1 14 36 67 0
-1 14 36 -67 0
13 -14 36 68 0
13 -14 36 -68 0
3 13 -36 69 0
3 13 -36 -69 0
-3 5 -36 70 0
-3 5 -36 -70 0
-3 -5 13 71 0
-3 -5 13 -71 0
4 44 49 72 0
4 44 49 -72 0
-4 17 49 73 0
-4 17 49 -73 0
-4 -17 44 74 0
-4 -17 44 -74 0
-13 31 -44 75 0
-13 31 -44 -75 0
-13 -31 -44 76 0
-13 -31 -44 -76 0
23 33 -49 77 0
23 33 -49 -77 0
23 -33 -49 78 0
23 -33 -49 -78 0
-19 37 42 79 0
-19 37 42 -79 0
-19 37 -42 80 0
-19 37 -42 -80 0
-23 29 -37 81 0
-23 29 -37 -81 0
-23 -29 -37 82 0
-23 -29 -37 -82 0
-24 -26 32 83 0
-24 -26 32 -83 0
2 -12 -31 84 0
2 -12 -31 -84 0
17 28 40 85 0
17 28 40 -85 0
-15 -17 40 86 0
-15 -17 40 -86 0
2 28 47 87 0
2 28 47 -87 0
26 -28 -39 88 0
26 -28 -39 -88 0
21 -26 -28 89 0
21 -26 -28 -89 0
16 24 29 90 0
16 24 29 -90 0
12 -34 -39 91 0
12 -34 -39 -91 0
10 31 40 92 0
10 31 40 -92 0
-6 -32 35 93 0
-6 -32 35 -93 0
16 -24 34 94 0
16 -24 34 -94 0
-24 -31 38 95 0
-24 -31 38 -95 0
-16 -24 -38 96 0
-16 -24 -38 -96 0
-2 -10 -47 97 0
-2 -10 -47 -97 0
4 -16 27 98 0
4 -16 27 -98 0
-1 24 -30 99 0
-1 24 -30 -99 0
-18 26 -46 100 0
-18 26 -46 -100 0
27 30 -45 101 0
27 30 -45 -101 0
4 -14 -44 102 0
4 -14 -44 -102 0
-29 43 47 103 0
-29 43 47 -103 0
-8 -10 -46 104 0
-8 -10 -46 -104 0
-11 39 -43 105 0
-11 39 -43 -105 0
-11 -40 -43 106 0
-11 -40 -43 -106 0
6 -21 26 107 0
6 -21 26 -107 0
8 -25 46 108 0
8 -25 46 -108 0
-25 -38 46 109 0
-25 -38 46 -109 0
10 -46 -47 110 0
10 -46 -47 -110 0
25 -32 -40 111 0
25 -32 -40 -111 0
5 6 -40 112 0
5 6 -40 -112 0
11 15 16 113 0
11 15 16 -113 0
12 39 43 114 0
12 39 43 -114 0
5 11 32 115 0
5 11 32 -115 0
-5 17 32 116 0
-5 17 32 -116 0
-12 -40 -48 117 0
-12 -40 -48 -117 0
-2 18 -30 118 0
-2 18 -30 -118 0
3 10 -34 119 0
3 10 -34 -119 0
-2 -9 30 120 0
-2 -9 30 -120 0
-3 -5 -28 121 0
-3 -5 -28 -121 0
-9 26 48 122 0
-9 26 48 -122 0
22 -27 -48 123 0
22 -27 -48 -123 0
1 9 38 124 0
1 9 38 -124 0
3 -6 48 125 0
3 -6 48 -125 0
1 -6 34 126 0
1 -6 34 -126 0
15 -35 48 127 0
15 -35 48 -127 0
15 26 -27 128 0
15 26 -27 -128 0
-9 -27 129 130 0
-9 -27 129 -130 0
-9 -27 -129 131 0
-9 -27 -129 -131 0
1 9 25 132 0
1 9 25 -132 0

